
Gurobi 10.0.1 (linux64) logging started Sun Nov 26 15:40:38 2023

Set parameter LogFile to value "ArtificialInstance/ExperimentV2/S2T5K1/AdRo/gurobiSpRo48.txt"
Gurobi Optimizer version 10.0.1 build v10.0.1rc0 (linux64)

CPU model: AMD EPYC 7H12 64-Core Processor, instruction set [SSE2|AVX|AVX2]
Thread count: 128 physical cores, 128 logical processors, using up to 32 threads

Academic license 656792 - for non-commercial use only - registered to b.___@student.vu.nl
Optimize a model with 3395 rows, 3124 columns and 12249 nonzeros
Model fingerprint: 0x7b313753
Variable types: 1 continuous, 3123 integer (3123 binary)
Coefficient statistics:
  Matrix range     [1e+00, 4e+01]
  Objective range  [1e+00, 2e+01]
  Bounds range     [1e+00, 1e+00]
  RHS range        [1e+00, 1e+00]
Presolve removed 1509 rows and 1261 columns
Presolve time: 0.03s
Presolved: 1886 rows, 1863 columns, 7249 nonzeros
Variable types: 1 continuous, 1862 integer (1862 binary)
Found heuristic solution: objective 69.6500399

Root relaxation: objective 6.385928e+01, 491 iterations, 0.01 seconds (0.01 work units)

    Nodes    |    Current Node    |     Objective Bounds      |     Work
 Expl Unexpl |  Obj  Depth IntInf | Incumbent    BestBd   Gap | It/Node Time

*    0     0               0      63.8592849   63.85928  0.00%     -    0s

Explored 1 nodes (491 simplex iterations) in 0.07 seconds (0.04 work units)
Thread count was 32 (of 128 available processors)

Solution count 2: 63.8593 69.65 

Optimal solution found (tolerance 1.00e-04)
Best objective 6.385928488437e+01, best bound 6.385928488437e+01, gap 0.0000%
